(declare-fun I0_2 () Int)
(declare-fun I0_4 () Int)
(declare-fun I0_8 () Int)
(declare-fun I1_8 () Int)
(declare-fun I2_8 () Int)
(declare-fun PCTEMP_LHS_1 () Int)
(declare-fun PCTEMP_LHS_2 () Int)
(declare-fun PCTEMP_LHS_3 () String)
(declare-fun T0_2 () String)
(declare-fun T0_4 () String)
(declare-fun T1_2 () String)
(declare-fun T1_4 () String)
(declare-fun T1_8 () String)
(declare-fun T2_2 () String)
(declare-fun T2_4 () String)
(declare-fun T2_8 () String)
(declare-fun T3_2 () String)
(declare-fun T3_4 () String)
(declare-fun T3_8 () String)
(declare-fun T4_2 () String)
(declare-fun T4_4 () String)
(declare-fun T5_2 () String)
(declare-fun T5_4 () String)
(declare-fun T_3 () Bool)
(declare-fun T_4 () Int)
(declare-fun T_6 () Bool)
(declare-fun T_7 () Bool)
(declare-fun T_SELECT_1 () Bool)
(declare-fun T_SELECT_2 () Bool)
(declare-fun var_0xINPUT_122 () String)
(assert (= T_SELECT_1 (not (= PCTEMP_LHS_1 (- 1)))))
(assert (ite T_SELECT_1 (and (= PCTEMP_LHS_1 (+ I0_2 0)) (= var_0xINPUT_122 (Concat T0_2 T1_2)) (= I0_2 (Length T4_2)) (= 0 (Length T0_2)) (= T1_2 (Concat T2_2 T3_2)) (= T2_2 (Concat T4_2 T5_2)) (= T5_2 "?") (not (= T4_2 "?"))) (and (= PCTEMP_LHS_1 (- 1)) (= var_0xINPUT_122 (Concat T0_2 T1_2)) (= 0 (Length T0_2)) (not (= T1_2 "?")))))
(assert (= T_SELECT_2 (not (= PCTEMP_LHS_2 (- 1)))))
(assert (ite T_SELECT_2 (and (= PCTEMP_LHS_2 (+ I0_4 0)) (= var_0xINPUT_122 (Concat T0_4 T1_4)) (= I0_4 (Length T4_4)) (= 0 (Length T0_4)) (= T1_4 (Concat T2_4 T3_4)) (= T2_4 (Concat T4_4 T5_4)) (= T5_4 "#") (not (= T4_4 "#"))) (and (= PCTEMP_LHS_2 (- 1)) (= var_0xINPUT_122 (Concat T0_4 T1_4)) (= 0 (Length T0_4)) (not (= T1_4 "#")))))
(assert (= T_3 (= PCTEMP_LHS_2 (- 1))))
(assert T_3)
(assert (= T_4 (+ PCTEMP_LHS_1 1)))
(assert (= I0_8 (- I2_8 T_4)))
(assert (>= T_4 0))
(assert (>= I2_8 T_4))
(assert (<= I2_8 I1_8))
(assert (= I2_8 I1_8))
(assert (= I0_8 (Length PCTEMP_LHS_3)))
(assert (= var_0xINPUT_122 (Concat T1_8 T2_8)))
(assert (= T2_8 (Concat PCTEMP_LHS_3 T3_8)))
(assert (= T_4 (Length T1_8)))
(assert (= I1_8 (Length var_0xINPUT_122)))
(assert (= T_6 (not (= PCTEMP_LHS_3 "xyz=99999&abc=qwerty"))))
(assert (= T_7 (not T_6)))
(assert T_7)
(check-sat)
